32 500
6 148
3 147
6 181
10 175
6 147
4 130
8 130
5 103
4 148
2 174
7 123
6 127
4 182
6 164
7 162
9 142
11 174
5 142
6 114
8 140
8 131
8 182
7 127
11 164
6 175
2 162
11 123
6 114
6 181
3 103
6 140
6 131
